150	32	4	63	
18	19	19	20

0	0	0	0	0	0	4	1	2	3	4
1	5	8	7	6	2	1	10
2	2	5	4	9	4	1	5
3	2	6	2	4	5	1	7
4	10	3	6	10	4	1	6
5	1	8	6	2	7	1	8
6	6	6	8	5	5	1	11
7	8	9	4	9	9	1	9
8	4	1	6	10	6	2	14	28
9	7	10	5	7	1	1	13
10	7	4	6	4	4	1	12
11	10	9	10	1	7	1	26
12	1	1	7	6	9	1	17
13	5	7	7	7	9	1	16
14	7	4	5	9	1	1	15
15	8	3	3	10	3	2	19	30
16	5	7	3	3	9	1	20
17	2	3	5	3	5	1	18
18	6	5	6	2	3	1	22
19	2	3	7	7	2	1	23
20	4	9	2	2	10	1	21
21	10	7	4	5	8	1	24
22	1	6	1	2	3	1	30
23	1	4	9	1	1	1	29
24	7	3	4	6	2	1	25
25	5	9	6	8	8	1	27
26	7	8	8	9	9	1	28
27	1	5	7	9	2	1	31
28	5	3	4	9	7	1	31
29	3	4	10	5	3	1	31
30	10	10	8	6	2	1	31
31	0	0	0	0	0	0
